100 10
635 479
191 508
647 324
666 680
62 556
429 325
84 335
422 372
775 666
546 721
254 475
736 210
625 228
628 715
50 511
568 327
872 771
846 614
475 530
170 581
455 39
441 111
730 470
538 710
674 604
527 706
684 647
948 954
618 933
737 398
593 415
701 269
357 437
986 788
342 576
299 415
559 60
669 805
835 865
338 583
413 517
603 929
626 670
268 524
713 384
643 487
324 608
329 287
390 194
682 284
437 445
709 501
313 364
890 765
512 383
663 553
877 196
78 309
462 619
557 732
774 671
257 479
598 584
628 52
464 86
481 331
633 125
607 658
943 72
506 499
857 386
885 649
492 255
756 722
516 580
567 67
551 448
434 412
676 203
624 604
374 520
523 490
482 512
293 514
644 700
885 624
708 490
646 523
716 453
618 529
542 495
472 753
319 227
900 630
421 167
373 375
365 334
355 300
762 197
550 873
